20
11	268	124	98	65
20	7	179	73	33
29	109	19	71	33
13	298	159	53	59
22	160	40	82	4
20	32	86	27	41
19	235	15	0	16
23	262	36	10	84
1	178	121	49	53
22	247	45	95	64
5	8	172	51	93
20	196	57	99	75
20	130	22	82	60
10	158	144	15	84
3	111	224	18	75
20	195	133	68	76
10	250	211	89	1
7	30	144	54	8
6	209	128	23	0
20	278	112	97	57
